s td 657 2 793
b 1 1
b 2 2
b 3 3
b 4 4
b 5 5 432
b 6 188 189
b 7 6 188
b 8 6 357
b 9 356 357
b 10 357
b 11 7
b 12 8 512
b 13 9 518
b 14 9 740
b 15 10 519
b 16 11 347
b 17 12
b 18 13 667
b 19 666 667
b 20 667
b 21 14 626
b 22 14 746
b 23 15 611
b 24 610 611
b 25 611
b 26 16
b 27 17 615
b 28 17 250
b 29 250 251
b 30 30 251
b 31 30 642
b 32 18
b 33 19 603
b 34 20
b 35 21 679
b 36 678 679
b 37 679
b 38 22 539
b 39 23
b 40 24
b 41 25 586
b 42 26
b 43 27 434
b 44 27 570
b 45 28 420
b 46 28 517
b 47 29 521
b 48 31 677
b 49 260 261
b 50 32 261
b 51 32 418
b 52 33
b 53 34 285
b 54 366 367
b 55 35 367
b 56 35 561
b 57 35 718
b 58 36 241
b 59 240 241
b 60 241
b 61 488 489
b 62 37 489
b 63 37 651
b 64 38 219
b 65 218 219
b 66 219
b 67 52 697
b 68 39 325
b 69 39 696
b 70 696 697
b 71 697
b 72 40 200
b 73 42 641
b 74 42 195
b 75 194 195
b 76 41 194
b 77 41 742
b 78 43 483
b 79 44
b 80 45 634
b 81 58 635
b 82 634 635
b 83 635
b 84 46 281
b 85 46 335
b 86 47 685
b 87 684 685
b 88 685
b 89 48 719
b 90 49
b 91 50
b 92 51 232
b 93 51 369
b 94 368 369
b 95 369
b 96 53 328
b 97 54 663
b 98 662 663
b 99 663
b 100 55
b 101 56 721
b 102 57 466
b 103 466 467
b 104 59 311
b 105 59 340
b 106 60 202
b 107 60 341
b 108 61 405
b 109 61 558
b 110 62
b 111 63 669
b 112 542 543
b 113 64 543
b 114 64 791
b 115 65 247
b 116 66 329
b 117 66 514
b 118 67 588
b 119 68
b 120 69
b 121 70 396
b 122 70 529
b 123 528 529
b 124 529
b 125 71
b 126 72 398
b 127 72 459
b 128 72 622
b 129 73 399
b 130 86 468
b 131 86 775
b 132 620 621
b 133 73 621
b 134 73 774
b 135 774 775
b 136 775
b 137 74
b 138 88 414
b 139 88 177
b 140 176 177
b 141 75 176
b 142 75 604
b 143 75 639
b 144 75 749
b 145 748 749
b 146 749
b 147 76 553
b 148 552 553
b 149 553
b 150 77
b 151 78
b 152 79
b 153 80 413
b 154 412 413
b 155 413
b 156 81
b 157 82
b 158 204 205
b 159 83 205
b 160 83 578
b 161 83 628
b 162 84 234
b 163 85 623
b 164 87
b 165 89 320
b 166 89 752
b 167 752 753
b 168 90 321
b 169 90 694
b 170 91 180
b 171 180 181
b 172 92 226
b 173 93
b 174 94 451
b 175 95 221
b 176 95 504
b 177 96 228
b 178 96 505
b 179 96 652
b 180 652 653
b 181 97 470
b 182 98 471
b 183 99 376
b 184 99 484
b 185 100 485
b 186 100 656
b 187 656 657
b 188 101 415
b 189 102 349
b 190 102 350
b 191 102 716
b 192 716 717
b 193 103
b 194 104 378
b 195 105 227
b 196 105 506
b 197 105 572
b 198 120 331
b 199 106 184
b 200 106 454
b 201 330 331
b 202 119 330
b 203 454 455
b 204 119 455
b 205 119 490
b 206 107 352
b 207 107 715
b 208 109 655
b 209 108 547
b 210 108 654
b 211 654 655
b 212 655
b 213 174 175
b 214 110 174
b 215 110 425
b 216 110 693
b 217 111 336
b 218 111 436
b 219 436 437
b 220 124 437
b 221 124 449
b 222 112 672
b 223 112 698
b 224 113 673
b 225 114 582
b 226 114 777
b 227 115 583
b 228 116 607
b 229 606 607
b 230 607
b 231 117 379
b 232 118
b 233 121 616
b 234 476 477
b 235 122 476
b 236 122 555
b 237 123 313
b 238 123 392
b 239 123 531
b 240 125 428
b 241 126 549
b 242 548 549
b 243 549
b 244 127
b 245 128 659
b 246 129 439
b 247 129 566
b 248 566 567
b 249 130 230
b 250 131
b 251 132 289
b 252 288 289
b 253 289
b 254 133 316
b 255 316 317
b 256 134 237
b 257 134 723
b 258 722 723
b 259 723
b 260 135 304
b 261 136 393
b 262 136 416
b 263 136 577
b 264 137 386
b 265 137 597
b 266 137 745
b 267 139 487
b 268 138 292
b 269 138 387
b 270 138 429
b 271 138 486
b 272 486 487
b 273 487
b 274 140 462
b 275 462 463
b 276 141 259
b 277 142 359
b 278 358 359
b 279 359
b 280 143 789
b 281 788 789
b 282 789
b 283 144
b 284 158 271
b 285 270 271
b 286 145 270
b 287 145 590
b 288 590 591
b 289 146
b 290 147 389
b 291 147 442
b 292 148 339
b 293 149
b 294 150 675
b 295 151 630
b 296 152 688
b 297 154 403
b 298 402 403
b 299 153 402
b 300 166 511
b 301 166 479
b 302 478 479
b 303 153 478
b 304 153 689
b 305 688 689
b 306 689
b 307 155 649
b 308 648 649
b 309 649
b 310 156
b 311 157 494
b 312 159 277
b 313 159 704
b 314 160
b 315 161 535
b 316 161 781
b 317 162 496
b 318 708 709
b 319 162 709
b 320 162 735
b 321 163 465
b 322 164 291
b 323 164 584
b 324 164 637
b 325 636 637
b 326 637
b 327 165
b 328 167
b 329 168 729
b 330 169
b 331 170 171
b 332 172 173
b 333 178
b 334 179
b 335 182
b 336 183
b 337 185
b 338 186 187
b 339 190
b 340 191
b 341 192 193
b 342 196
b 343 197
b 344 198
b 345 199
b 346 201
b 347 203
b 348 206
b 349 207
b 350 208
b 351 209
b 352 210 211
b 353 212 213
b 354 214
b 355 215
b 356 216 217
b 357 220
b 358 222
b 359 223
b 360 224
b 361 225
b 362 229
b 363 231
b 364 233
b 365 235
b 366 236
b 367 238 239
b 368 242 243
b 369 244
b 370 245
b 371 246
b 372 248
b 373 249
b 374 252
b 375 253
b 376 254 255
b 377 256
b 378 257
b 379 258
b 380 262
b 381 263
b 382 264 265
b 383 266
b 384 267
b 385 268 269
b 386 272 273
b 387 274 275
b 388 276
b 389 278
b 390 279
b 391 280
b 392 282 283
b 393 284
b 394 286 287
b 395 290
b 396 293
b 397 294
b 398 295
b 399 296
b 400 297
b 401 298 299
b 402 300 301
b 403 302 303
b 404 305
b 405 306
b 406 307
b 407 308
b 408 309
b 409 310
b 410 312
b 411 314
b 412 315
b 413 318 319
b 414 322 323
b 415 324
b 416 326
b 417 327
b 418 332
b 419 333
b 420 334
b 421 337
b 422 338
b 423 342
b 424 343
b 425 344
b 426 345
b 427 346
b 428 348
b 429 351
b 430 353
b 431 354
b 432 355
b 433 360
b 434 361
b 435 362
b 436 363
b 437 364
b 438 365
b 439 370
b 440 371
b 441 372 373
b 442 374
b 443 375
b 444 377
b 445 380 381
b 446 382
b 447 383
b 448 384
b 449 385
b 450 388
b 451 390
b 452 391
b 453 394
b 454 395
b 455 397
b 456 400 401
b 457 404
b 458 406
b 459 407
b 460 408 409
b 461 410
b 462 411
b 463 417
b 464 419
b 465 421
b 466 422
b 467 423
b 468 424
b 469 426
b 470 427
b 471 430
b 472 431
b 473 433
b 474 435
b 475 438
b 476 440
b 477 441
b 478 443
b 479 444
b 480 445
b 481 446
b 482 447
b 483 448
b 484 450
b 485 452
b 486 453
b 487 456
b 488 457
b 489 458
b 490 460 461
b 491 464
b 492 469
b 493 472
b 494 473
b 495 474 475
b 496 480
b 497 481
b 498 482
b 499 491
b 500 492
b 501 493
b 502 495
b 503 497
b 504 498 499
b 505 500
b 506 501
b 507 502 503
b 508 507
b 509 508 509
b 510 510
b 511 513
b 512 515
b 513 516
b 514 520
b 515 522
b 516 523
b 517 524
b 518 525
b 519 526
b 520 527
b 521 530
b 522 532 533
b 523 534
b 524 536
b 525 537
b 526 538
b 527 540 541
b 528 544
b 529 545
b 530 546
b 531 550
b 532 551
b 533 554
b 534 556
b 535 557
b 536 559
b 537 560
b 538 562 563
b 539 564 565
b 540 568 569
b 541 571
b 542 573
b 543 574 575
b 544 576
b 545 579
b 546 580
b 547 581
b 548 585
b 549 587
b 550 589
b 551 592
b 552 593
b 553 594 595
b 554 596
b 555 598
b 556 599
b 557 600
b 558 601
b 559 602
b 560 605
b 561 608
b 562 609
b 563 612
b 564 613
b 565 614
b 566 617
b 567 618 619
b 568 624
b 569 625
b 570 627
b 571 629
b 572 631
b 573 632
b 574 633
b 575 638
b 576 640
b 577 643
b 578 644
b 579 645
b 580 646 647
b 581 650
b 582 658
b 583 660 661
b 584 664
b 585 665
b 586 668
b 587 670
b 588 671
b 589 674
b 590 676
b 591 680 681
b 592 682
b 593 683
b 594 686
b 595 687
b 596 690
b 597 691
b 598 692
b 599 695
b 600 699
b 601 700
b 602 701
b 603 702
b 604 703
b 605 705
b 606 706 707
b 607 710 711
b 608 712
b 609 713
b 610 714
b 611 720
b 612 724 725
b 613 726
b 614 727
b 615 728
b 616 730
b 617 731
b 618 732
b 619 733
b 620 734
b 621 736
b 622 737
b 623 738
b 624 739
b 625 741
b 626 743
b 627 744
b 628 747
b 629 750
b 630 751
b 631 754 755
b 632 756 757
b 633 758
b 634 759
b 635 760 761
b 636 762
b 637 763
b 638 764
b 639 765
b 640 766
b 641 767
b 642 768
b 643 769
b 644 770
b 645 771
b 646 772 773
b 647 776
b 648 778 779
b 649 780
b 650 782
b 651 783
b 652 784
b 653 785
b 654 786
b 655 787
b 656 790
b 657 792 793
1 2
1 3
1 4
1 5
1 6
1 11
1 12
1 13
1 15
1 16
1 17
1 18
1 21
1 23
1 26
1 27
1 32
1 33
1 34
1 35
1 38
1 39
1 40
1 41
1 42
1 43
1 45
1 47
1 48
1 49
1 52
1 53
1 54
1 58
1 61
1 64
1 67
1 72
1 73
1 78
1 79
1 80
1 84
1 86
1 89
1 90
1 91
1 92
1 96
1 97
1 100
1 101
1 102
1 104
1 106
1 108
1 110
1 111
1 112
1 115
1 116
1 118
1 119
1 120
1 121
1 125
1 126
1 129
1 137
1 138
1 147
1 150
1 151
1 152
1 153
1 156
1 157
1 158
1 162
1 163
1 164
1 165
1 168
1 170
1 172
1 173
1 174
1 175
1 177
1 181
1 182
1 183
1 185
1 188
1 189
1 193
1 194
1 195
1 198
1 206
1 208
1 213
1 217
1 222
1 224
1 225
1 227
1 228
1 231
1 232
1 233
1 234
1 237
1 240
1 241
1 244
1 245
1 246
1 249
1 250
1 251
1 254
1 256
1 260
1 261
1 264
1 267
1 274
1 276
1 277
1 280
1 283
1 284
1 289
1 290
1 292
1 293
1 294
1 295
1 296
1 307
1 310
1 311
1 312
1 314
1 315
1 317
1 321
1 322
1 327
1 328
1 329
1 330
1 331
1 332
1 333
1 334
1 335
1 336
1 337
1 338
1 339
1 340
1 341
1 342
1 343
1 344
1 345
1 346
1 347
1 348
1 349
1 350
1 351
1 352
1 353
1 354
1 355
1 356
1 357
1 358
1 359
1 360
1 361
1 362
1 363
1 364
1 365
1 366
1 367
1 368
1 369
1 370
1 371
1 372
1 373
1 374
1 375
1 376
1 377
1 378
1 379
1 380
1 381
1 382
1 383
1 384
1 385
1 386
1 387
1 388
1 389
1 390
1 391
1 392
1 393
1 394
1 395
1 396
1 397
1 398
1 399
1 400
1 401
1 402
1 403
1 404
1 405
1 406
1 407
1 408
1 409
1 410
1 411
1 412
1 413
1 414
1 415
1 416
1 417
1 418
1 419
1 420
1 421
1 422
1 423
1 424
1 425
1 426
1 427
1 428
1 429
1 430
1 431
1 432
1 433
1 434
1 435
1 436
1 437
1 438
1 439
1 440
1 441
1 442
1 443
1 444
1 445
1 446
1 447
1 448
1 449
1 450
1 451
1 452
1 453
1 454
1 455
1 456
1 457
1 458
1 459
1 460
1 461
1 462
1 463
1 464
1 465
1 466
1 467
1 468
1 469
1 470
1 471
1 472
1 473
1 474
1 475
1 476
1 477
1 478
1 479
1 480
1 481
1 482
1 483
1 484
1 485
1 486
1 487
1 488
1 489
1 490
1 491
1 492
1 493
1 494
1 495
1 496
1 497
1 498
1 499
1 500
1 501
1 502
1 503
1 504
1 505
1 506
1 507
1 508
1 509
1 510
1 511
1 512
1 513
1 514
1 515
1 516
1 517
1 518
1 519
1 520
1 521
1 522
1 523
1 524
1 525
1 526
1 527
1 528
1 529
1 530
1 531
1 532
1 533
1 534
1 535
1 536
1 537
1 538
1 539
1 540
1 541
1 542
1 543
1 544
1 545
1 546
1 547
1 548
1 549
1 550
1 551
1 552
1 553
1 554
1 555
1 556
1 557
1 558
1 559
1 560
1 561
1 562
1 563
1 564
1 565
1 566
1 567
1 568
1 569
1 570
1 571
1 572
1 573
1 574
1 575
1 576
1 577
1 578
1 579
1 580
1 581
1 582
1 583
1 584
1 585
1 586
1 587
1 588
1 589
1 590
1 591
1 592
1 593
1 594
1 595
1 596
1 597
1 598
1 599
1 600
1 601
1 602
1 603
1 604
1 605
1 606
1 607
1 608
1 609
1 610
1 611
1 612
1 613
1 614
1 615
1 616
1 617
1 618
1 619
1 620
1 621
1 622
1 623
1 624
1 625
1 626
1 627
1 628
1 629
1 630
1 631
1 632
1 633
1 634
1 635
1 636
1 637
1 638
1 639
1 640
1 641
1 642
1 643
1 644
1 645
1 646
1 647
1 648
1 649
1 650
1 651
1 652
1 653
1 654
1 655
1 656
1 657
6 7
7 8
8 10
9 10
13 14
18 20
19 20
21 22
23 25
24 25
27 28
28 29
29 30
30 31
35 37
36 37
43 44
45 46
49 50
50 51
54 55
55 57
56 57
58 60
59 60
61 62
62 63
64 66
65 66
67 71
68 69
69 70
70 71
73 74
74 75
75 76
76 77
80 82
81 83
82 83
84 85
86 88
87 88
92 93
93 95
94 95
97 99
98 99
102 103
104 105
106 107
108 109
112 113
113 114
116 117
121 122
122 124
123 124
126 128
127 128
129 134
130 131
131 136
132 133
133 134
134 135
135 136
138 139
139 140
140 141
141 144
142 144
143 144
144 146
145 146
147 149
148 149
153 155
154 155
158 159
159 161
160 161
165 166
166 167
168 169
170 171
175 176
177 179
178 179
179 180
183 184
185 186
186 187
189 191
190 191
191 192
195 197
196 197
198 201
199 200
200 203
201 202
202 205
203 204
204 205
206 207
208 212
209 210
210 211
211 212
213 214
214 216
215 216
217 218
218 219
219 220
220 221
222 223
225 226
228 230
229 230
234 235
235 236
237 239
238 239
241 243
242 243
246 247
247 248
251 253
252 253
254 255
256 257
257 259
258 259
261 263
262 263
264 266
265 266
267 273
268 271
269 271
270 271
271 272
272 273
274 275
277 279
278 279
280 282
281 282
284 285
285 286
286 287
287 288
290 291
296 305
297 298
298 299
299 304
300 301
301 302
302 303
303 304
304 306
305 306
307 309
308 309
312 313
315 316
317 320
318 319
319 320
322 324
323 324
324 326
325 326
